c instance by G2
c solution = 0110011001000
c Known solution cost is 816 
p cnf 13 30
w 61 47 46 75 49 94 49 52 74 66 78 51 74
-13 9 6 0
-1 5 2 0
-7 -8 -5 0
-13 -3 -10 0
7 5 -11 0
-4 -5 -10 0
6 5 -2 0
3 5 -2 0
-6 -1 -3 0
-5 4 -10 0
-5 1 -4 0
-7 -2 10 0
10 6 -7 0
-7 9 6 0
-7 -1 11 0
-3 4 -5 0
-2 11 7 0
12 -9 13 0
13 4 -5 0
-6 -12 11 0
-4 -7 8 0
10 -8 5 0
-10 -11 -2 0
-4 11 -1 0
-2 11 -12 0
8 -10 -4 0
-8 4 -6 0
13 2 -7 0
-1 -3 -2 0
6 -13 8 0
